








































































































35 30 72 20 69 26 31 66 
43 32 37 46 61 28 54 36 
71 47 41 73 49 29 38 23 8 
59 3 42 51 68 34 18 
15 4 53 13 17 39 60 
22 7 75 63 16 11 65 52 
64 70 5 57 74 2 56 
24 50 10 12 40 25 62 76 14 
67 45 0 33 58 55 44 19 6 
21 27 48 9 1 
